p cnf 15 44
-10 -4 7 0 
-3 6 7 0 
-14 3 4 0 
-15 -11 9 0 
-9 -8 -7 0 
-15 -11 6 0 
-13 2 7 0 
-14 -9 -4 0 
-9 -3 -1 0 
-11 -6 12 0 
4 12 14 0 
-3 11 12 0 
-15 -4 11 0 
-8 -4 5 0 
-13 -11 12 0 
-5 -3 12 0 
-9 -4 11 0 
-1 4 11 0 
-9 -1 5 0 
4 5 8 0 
-8 1 13 0 
-7 11 12 0 
-14 -12 5 0 
-8 -2 11 0 
-15 -10 -6 0 
-10 -6 2 0 
-9 1 3 0 
-14 7 9 0 
-13 -5 -3 0 
-9 -7 5 0 
-13 -6 7 0 
-2 1 11 0 
-5 -3 8 0 
-9 6 11 0 
-14 3 5 0 
-15 -9 -2 0 
-15 6 11 0 
-14 -12 1 0 
1 2 12 0 
-5 2 10 0 
-13 5 7 0 
-15 -3 5 0 
-6 -5 -2 0 
-1 2 15 0 
